p cnf 103 359
-3 1 0
-3 -2 0
-1 2 3 0
-4 -5 -6 0
4 5 -6 0
-4 5 6 0
4 -5 6 0
7 -3 0
7 -6 0
3 6 -7 0
-7 2 -8 0
7 -2 -8 0
-7 -2 8 0
7 2 8 0
2 -9 -10 0
-2 9 -10 0
2 9 10 0
-2 -9 10 0
-12 10 0
-12 11 0
-10 -11 12 0
-13 -9 0
-13 3 0
9 -3 13 0
-14 15 -16 0
14 -15 -16 0
-14 -15 16 0
14 15 16 0
-17 -5 0
-17 16 0
5 -16 17 0
-17 7 -18 0
17 -7 -18 0
-17 -7 18 0
17 7 18 0
-13 18 -19 0
13 -18 -19 0
-13 -18 19 0
13 18 19 0
-20 -12 0
-20 19 0
12 -19 20 0
-21 -8 0
-21 20 0
8 -20 21 0
22 6 0
22 -5 0
-6 5 -22 0
-23 9 0
-23 -22 0
-9 22 23 0
26 -24 0
26 25 0
24 -25 -26 0
27 -23 0
27 26 0
23 -26 -27 0
-15 -16 -28 0
15 16 -28 0
-15 16 28 0
15 -16 28 0
-30 -28 0
-30 29 0
28 -29 30 0
31 -5 0
31 -9 0
5 9 -31 0
22 -31 -32 0
-22 31 -32 0
22 31 32 0
-22 -31 32 0
-30 -32 -33 0
30 32 -33 0
-30 32 33 0
30 -32 33 0
34 13 0
34 33 0
-13 -33 -34 0
-35 27 0
-35 -34 0
-27 34 35 0
-37 15 0
-37 36 0
-15 -36 37 0
38 -25 0
38 6 0
25 -6 -38 0
37 -38 -39 0
-37 38 -39 0
37 38 39 0
-37 -38 39 0
-6 -39 -40 0
6 39 -40 0
-6 39 40 0
6 -39 40 0
-41 -36 0
-41 6 0
36 -6 41 0
42 2 0
42 41 0
-2 -41 -42 0
-43 -31 0
-43 22 0
31 -22 43 0
-44 -43 0
-44 -9 0
43 9 44 0
45 -30 0
45 -31 0
30 31 -45 0
-46 44 0
-46 -45 0
-44 45 46 0
47 -42 0
47 46 0
42 -46 -47 0
48 -32 0
48 -18 0
32 18 -48 0
48 9 -49 0
-48 -9 -49 0
48 -9 49 0
-48 9 49 0
2 -14 -50 0
-2 14 -50 0
2 14 50 0
-2 -14 50 0
-51 30 0
-51 24 0
-30 -24 51 0
52 50 0
52 -51 0
-50 51 -52 0
-49 -52 -53 0
49 52 -53 0
-49 52 53 0
49 -52 53 0
-54 -25 0
-54 -43 0
25 43 54 0
-10 39 -55 0
10 -39 -55 0
-10 -39 55 0
10 39 55 0
-56 55 0
-56 2 0
-55 -2 56 0
54 56 -57 0
-54 -56 -57 0
54 -56 57 0
-54 56 57 0
53 -57 -58 0
-53 57 -58 0
53 57 58 0
-53 -57 58 0
59 -47 0
59 58 0
47 -58 -59 0
-60 -40 0
-60 59 0
40 -59 60 0
61 -35 0
61 -60 0
35 60 -61 0
63 -62 0
63 9 0
62 -9 -63 0
45 -23 -64 0
-45 23 -64 0
45 23 64 0
-45 -23 64 0
-65 -64 0
-65 64 0
-33 65 -66 0
33 -65 -66 0
-33 -65 66 0
33 65 66 0
-22 17 -68 0
22 -17 -68 0
-22 -17 68 0
22 17 68 0
-69 -67 0
-69 68 0
67 -68 69 0
-70 66 0
-70 -69 0
-66 69 70 0
-63 70 -71 0
63 -70 -71 0
-63 -70 71 0
63 70 71 0
-72 17 0
-72 -31 0
-17 31 72 0
-73 72 0
-73 1 0
-72 -1 73 0
-10 2 -74 0
10 -2 -74 0
-10 -2 74 0
10 2 74 0
-75 -14 0
-75 25 0
14 -25 75 0
-76 -74 0
-76 -75 0
74 75 76 0
-77 73 0
-77 -76 0
-73 76 77 0
-24 -9 -78 0
24 9 -78 0
-24 9 78 0
24 -9 78 0
-26 5 -79 0
26 -5 -79 0
-26 -5 79 0
26 5 79 0
80 68 0
80 -79 0
-68 79 -80 0
-81 78 0
-81 80 0
-78 -80 81 0
81 -43 -82 0
-81 43 -82 0
81 43 82 0
-81 -43 82 0
83 77 0
83 -82 0
-77 82 -83 0
-71 83 -84 0
71 -83 -84 0
-71 -83 84 0
71 83 84 0
-85 23 0
-85 45 0
-23 -45 85 0
-36 85 -86 0
36 -85 -86 0
-36 -85 86 0
36 85 86 0
-4 7 -87 0
4 -7 -87 0
-4 -7 87 0
4 7 87 0
-88 86 0
-88 87 0
-86 -87 88 0
89 -78 0
89 1 0
78 -1 -89 0
90 -29 0
90 36 0
29 -36 -90 0
91 -89 0
91 90 0
89 -90 -91 0
-92 -25 0
-92 5 0
25 -5 92 0
-93 -92 0
-93 -1 0
92 1 93 0
-55 93 -94 0
55 -93 -94 0
-55 -93 94 0
55 93 94 0
95 91 0
95 94 0
-91 -94 -95 0
96 -93 0
96 -15 0
93 15 -96 0
-97 95 0
-97 -96 0
-95 96 97 0
98 88 0
98 97 0
-88 -97 -98 0
99 41 0
99 41 0
-41 -99 0
98 -99 -100 0
-98 99 -100 0
98 99 100 0
-98 -99 100 0
84 100 -101 0
-84 -100 -101 0
84 -100 101 0
-84 100 101 0
-102 61 0
-102 -101 0
-61 101 102 0
-21 102 -103 0
21 -102 -103 0
-21 -102 103 0
21 102 103 0
-14 51 -33 23 0
94 -59 72 3 0
-37 -3 -22 94 0
94 38 69 -31 37 41 0
90 -31 0
-31 19 84 0
98 -85 92 -61 0
-43 -46 -38 61 1 14 0
61 -9 0
9 82 -21 -6 -102 0
66 48 83 14 -27 0
21 32 -91 0
-80 68 -97 -65 -95 0
45 12 0
-13 39 6 68 -81 40 0
17 -83 44 23 -67 0
-84 -21 69 0
67 92 50 0
-23 51 -37 -10 0
-96 -47 101 0
-95 -10 -29 -60 0
-53 91 0
-10 -84 53 -32 28 -103 0
-75 -99 80 41 40 -45 0
-50 15 -9 -62 -60 0
-26 38 -76 0
-12 -60 -95 -86 -10 93 0
8 100 28 64 0
64 52 0
-61 -16 -57 -46 96 0
23 53 -91 -70 -30 0
-100 74 4 0
4 -24 -64 0
-14 30 51 -57 -91 0
48 -12 9 0
27 -28 41 97 64 16 0
-24 91 97 -90 54 -49 0
-10 -49 -22 -18 0
-47 -103 -3 71 -99 0
-97 48 -9 0
45 47 52 -38 0
87 84 -91 41 23 0
20 17 0
-13 69 -74 -30 50 0
33 -79 7 0
89 38 14 34 0
-92 63 -47 0
-97 -38 -20 0
-92 35 -46 -90 -39 -64 0
102 -91 0
-46 -53 -48 19 36 38 0
8 -98 100 -34 0
-35 52 0
99 -46 35 -83 -69 0
-32 -25 0
-19 -34 48 68 -10 0
100 76 -78 -102 0
-90 -29 -43 -17 -9 -30 0
-91 19 48 -43 55 -21 0
-101 25 51 -16 87 0
103 0
